AES/1_3_4/ssaes_r1-20_c3_rw1_e4_f0_k1-20_aes_1base_box_aes_mc_bidirectional/ExperimentMinisat_r3_k4cnf_2011-10-29-153119/Result
WARNING: for repeatability, setting FPU to use double precision
============================[ Problem Statistics ]=============================
|                                                                             |
|  Number of variables:           204                                         |
|  Number of clauses:             804                                         |
|  Parse time:                   0.00 s                                       |
|  Eliminated clauses:           0.00 Mb                                      |
|  Simplification time:          0.00 s                                       |
|                                                                             |
=============================[ Search Statistics ]==============================
| Conflicts  |          ORIGINAL         |          LEARNT          | Progress |
|            |    Vars  Clauses Literals |    Limit  Clauses Lit/Cl |          |
================================================================================
|        100 |     120      588     1920 |      215      100      9 | 17.652 % |
|        250 |     120      588     1920 |      237      250      9 | 17.649 % |
|        475 |     120      588     1920 |      260      194      7 | 17.649 % |
|        812 |     120      588     1920 |      286      229      6 | 17.649 % |
===============================================================================
restarts              : 7
conflicts             : 843            (60227 /sec)
decisions             : 931            (0.00 % random) (66514 /sec)
propagations          : 33262          (2376366 /sec)
conflict literals     : 6352           (31.82 % deleted)
Memory used           : 8.00 MB
CPU time              : 0.013997 s

SATISFIABLE
